
Welcome to IBM(R) ILOG(R) CPLEX(R) Interactive Optimizer 22.1.1.0
  with Simplex, Mixed Integer & Barrier Optimizers
5725-A06 5725-A29 5724-Y48 5724-Y49 5724-Y54 5724-Y55 5655-Y21
Copyright IBM Corp. 1988, 2022.  All Rights Reserved.

Type 'help' for a list of available commands.
Type 'help' followed by a command name for more
information on commands.

CPLEX> Selected objective sense:  MINIMIZE
Selected objective  name:  00000000
Selected RHS        name:  RHS1
Selected bound      name:  BOUND
Problem 'ee.mps' read.
Read time = 0.02 sec. (3.14 ticks)
CPLEX> New value for time limit in seconds: 7200
CPLEX> New value for parallel optimization mode: -1
CPLEX> New value for default parallel thread count: 40
CPLEX> New value for mixed integer optimality gap tolerance: 1e-13
CPLEX> Version identifier: 22.1.1.0 | 2022-11-28 | 9160aff4d
CPXPARAM_Threads                                 40
CPXPARAM_Parallel                                -1
CPXPARAM_TimeLimit                               7200
CPXPARAM_MIP_Tolerances_MIPGap                   1e-13
Found incumbent of value 0.000000 after 0.00 sec. (0.31 ticks)
Tried aggregator 2 times.
MIP Presolve eliminated 183 rows and 2745 columns.
MIP Presolve modified 5862 coefficients.
Aggregator did 713 substitutions.
Reduced MIP has 3624 rows, 7744 columns, and 28666 nonzeros.
Reduced MIP has 7744 binaries, 0 generals, 0 SOSs, and 0 indicators.
Presolve time = 0.08 sec. (68.81 ticks)
Probing time = 0.03 sec. (5.32 ticks)
Tried aggregator 1 time.
Detecting symmetries...
Reduced MIP has 3624 rows, 7744 columns, and 28666 nonzeros.
Reduced MIP has 7744 binaries, 0 generals, 0 SOSs, and 0 indicators.
Presolve time = 0.02 sec. (21.95 ticks)
Probing time = 0.02 sec. (5.10 ticks)
Clique table members: 18557.
MIP emphasis: balance optimality and feasibility.
MIP search method: dynamic search.
Parallel mode: opportunistic, using up to 40 threads.
Root relaxation solution time = 0.16 sec. (145.86 ticks)

        Nodes                                         Cuts/
   Node  Left     Objective  IInf  Best Integer    Best Bound    ItCnt     Gap

*     0+    0                            0.0000  -1.31000e+13              --- 
*     0+    0                      -4.28000e+12  -1.31000e+13           206.08%
*     0+    0                      -5.50000e+12  -1.31000e+13           138.18%
      0     0  -1.30900e+13   106  -5.50000e+12  -1.30900e+13     2882  138.00%
*     0+    0                      -1.30900e+13  -1.30900e+13             0.00%
*     0+    0                      -1.30900e+13  -1.30900e+13             0.00%
      0     0  -1.30900e+13   112  -1.30900e+13      Cuts: 92     3487    0.00%
*     0+    0                      -1.30900e+13  -1.30900e+13             0.00%
      0     0  -1.30900e+13   142  -1.30900e+13      Cuts: 68     3700    0.00%
*     0+    0                      -1.30900e+13  -1.30900e+13             0.00%

Repeating presolve.
Tried aggregator 2 times.
MIP Presolve eliminated 2324 rows and 5552 columns.
MIP Presolve added 10 rows and 0 columns.
MIP Presolve modified 43 coefficients.
Aggregator did 429 substitutions.
Reduced MIP has 881 rows, 1714 columns, and 6179 nonzeros.
Reduced MIP has 1714 binaries, 0 generals, 0 SOSs, and 0 indicators.
Presolve time = 0.02 sec. (21.04 ticks)
Probing fixed 2 vars, tightened 0 bounds.
Probing time = 0.01 sec. (12.45 ticks)
Tried aggregator 1 time.
Detecting symmetries...
MIP Presolve eliminated 1 rows and 2 columns.
Reduced MIP has 880 rows, 1712 columns, and 6170 nonzeros.
Reduced MIP has 1712 binaries, 0 generals, 0 SOSs, and 0 indicators.
Presolve time = 0.01 sec. (7.61 ticks)
Represolve time = 0.05 sec. (58.26 ticks)
Probing time = 0.00 sec. (2.73 ticks)
Clique table members: 4165.
MIP emphasis: balance optimality and feasibility.
MIP search method: dynamic search.
Parallel mode: opportunistic, using up to 40 threads.
Root relaxation solution time = 0.02 sec. (11.61 ticks)

        Nodes                                         Cuts/
   Node  Left     Objective  IInf  Best Integer    Best Bound    ItCnt     Gap

*     0+    0                      -1.30900e+13  -1.30900e+13             0.00%
      0     0  -1.30900e+13    85  -1.30900e+13  -1.30900e+13     4277    0.00%
      0     0  -1.30900e+13    85  -1.30900e+13     Cuts: 110     4384    0.00%
      0     0  -1.30900e+13    39  -1.30900e+13      Cuts: 58     4467    0.00%
      0     0  -1.30900e+13    66  -1.30900e+13      Cuts: 20     4491    0.00%
      0     2  -1.30900e+13    66  -1.30900e+13  -1.30900e+13     4491    0.00%
Elapsed time = 1.32 sec. (879.45 ticks, tree = 0.02 MB, solutions = 7)

GUB cover cuts applied:  4
Clique cuts applied:  56
Cover cuts applied:  157
Flow cuts applied:  2
Mixed integer rounding cuts applied:  10
Zero-half cuts applied:  23
Lift and project cuts applied:  15
Gomory fractional cuts applied:  19

Root node processing (before b&c):
  Real time             =    1.08 sec. (879.54 ticks)
Parallel b&c, 40 threads:
  Real time             =    0.55 sec. (100.84 ticks)
  Sync time (average)   =    0.24 sec.
  Wait time (average)   =    0.00 sec.
                          ------------
Total (root+branch&cut) =    1.63 sec. (980.38 ticks)

Solution pool: 9 solutions saved.

MIP - Integer optimal solution:  Objective = -1.3089998890e+13
Solution time =    1.67 sec.  Iterations = 30380  Nodes = 763
Deterministic time = 980.41 ticks  (588.21 ticks/sec)

CPLEX> Solution 'p10' written to file 'ee.sol'.
CPLEX> 